
 102   30
  10   10   10   10   10   10   10   10   10   10   10   10   10   10   10   10   10   10   10   10   10   10   10   10   10   10   10   10   10   10

   0   0   0   0   0   0   0   0   0   0   0   0   0   0   0   0   0   0   0   0   0   0   0   0   0   0   0   0   0   0   0  29 2 3 4 5 6 7 8 9 10 11 12 13 14 15 16 17 19 20 21 23 24 25 26 27 29 31 34 43 50 
   6   1   0   0   0   0   0   0   0   0   3   0   0   0   0   0   0   0   0   0   0   0   0   0   0   0   0   0   0   0   0  13 100 63 60 58 52 49 44 38 37 35 33 22 18 
   8   0   0   0   0   0   0   0   0   1   6   0   0   0   0   0   0   0   0   0   0   0   0   0   0   0   0   0   0   0   0  14 101 100 73 70 63 62 60 59 56 52 44 37 30 18 
   6   0   0   0   0   1   0   3   0   0   0   0   0   0   0   0   0   0   0   0   0   0   0   0   0   0   2   0   0   0   0  18 101 95 73 72 71 69 67 66 63 61 60 59 57 53 49 48 35 32 
   1   0   0   0   0   0   0   6   0   0   0   0   2   1   0   0   1   0   0   0   0   0   0   0   0   0   0   2   0   0   0  17 101 100 99 97 73 72 71 61 58 53 52 47 42 40 39 38 37 
   9   0   0   0   1   0   0   0   0   0   0   0   0   0   0   0   0   0   0   1   0   0   0   0   0   0   0   4   0   0   0  16 101 100 97 96 95 85 70 68 66 64 60 58 51 48 36 28 
   1   0   1   0   7   0   0   0   2   0   0   0   0   3   0   1   0   0   0   0   0   0   0   0   0   0   0   0   0   0   0  19 101 100 97 73 72 70 68 67 64 63 61 60 57 56 49 48 42 41 38 
   6   0   4   0   0   0   0   0   0   0   0   0   0   2   0   0   7   0   0   0   0   0   2   0   0   0   0   6   4   0   0  13 101 95 72 69 66 63 59 58 54 53 48 35 32 
   8   9   0   0   0   0   0   0   0   0   0   0   0   0   0   0   0   0   3   0   0   0   0   0   0   0   0   0   0   0   0  13 101 97 95 86 68 67 66 63 61 60 48 46 28 
   2   0   0   0   0   0   0   0   0  10   0   0   0   0   0   0   4   0   0   0   0   0   0   0   0   0   0   0   0   0   0  12 101 99 92 64 63 61 59 56 54 53 39 32 
   2   0   0   1   0   0   0   0   0   0   0   0   3   0   0   0   0   0   0   0   0   0   0   0   0   0   5  10   0   0   0  10 99 92 73 71 69 67 63 45 35 32 
   2   0   0   0   0   0   0   0   0   9   0   0   0   9   0   0   0   2   2   0   0   4   0   0   1   0   0   7   0   0   0  16 100 99 94 92 89 83 73 70 68 67 63 59 52 49 45 35 
  10   0   0   0   0   0   0   0   0   0   0   0   0   0   0   0   0   0   0   0   0   0   0   0   0   0   0   9   0   0   0  12 101 94 93 71 69 68 63 61 48 47 45 33 
   6   0   0   0   0   0   0   5   0   0   4   0   7   0   1   0   5   0   0   0   0   0   4   0   0   0   0   0   0   0   0  21 100 98 97 95 94 93 92 89 88 71 70 69 67 66 62 59 56 55 53 49 42 
   2   4   0   0   0   0   0   0   6   0   0   0   0   7   0   7   0   0   0   0   0   0   0   0   0   0   0   5   0   0   0  15 100 98 92 89 72 70 69 68 66 63 57 53 52 47 35 
   2   0   0   0   0   0   0   0   0   0   0   0   0   0   0   0   0   0   0   0   0   0   0   1   0   0   0   0   0   0   0  13 101 100 92 89 72 71 69 68 67 53 52 45 35 
   7   0   0   0   0   0   1   0   0   0   0   0   0   0   0   7   0   0   4   0   0   0   8   0   0   1   0   0   0   0   1   9 99 94 68 67 53 47 45 38 35 
   7   0   0   0   8   0   0   0   0   0   0   1   0   0   0   0   0   0   3   0   0   0   0   0   0   0   4   0   0   0   0  18 97 96 94 93 89 88 84 72 71 68 67 65 64 61 55 53 48 45 
   1   0   0   6   0   0   7   0   0   0   0   0   0   0   0   0   0   0   0   5   0   0   8   0   0   0   0   0   0   0   0  21 97 95 94 93 91 90 89 88 87 86 84 72 71 67 66 62 61 60 59 52 48 
   5   0   0   0   0   0   0   6   0   0   8   0   0   0  10   7   0   0   0   0   0   3   0   0   0   0   0   0   0   0   0  11 99 98 94 92 89 72 70 68 66 59 35 
  10   0   0   7   0   0   0   0   0   6   5   0   0   0   0   0   0   0   0   0   0   0   0   0   0  10   0   0   0   0   0  20 99 98 97 96 95 92 90 89 87 85 83 81 70 68 67 66 62 60 59 47 
   3   0   0   4   0   0   5   0   0   5   0   0   0   9   6   0  10   0   0   0   0   0   0   0   0   7   0   0   0   1   0  25 101 99 97 96 95 92 91 90 89 88 87 86 85 83 82 80 77 73 69 68 67 66 65 62 56 
   2   0   0   0   0   0   0   0   0   0   0   8   0   0   0   0   0   0   0   0   0   0   0   0   0   0   0   7   0   0   6  19 100 97 95 92 89 87 85 83 81 71 70 68 67 66 65 62 57 52 47 
  10   0   9   0   0   0   0   0   0   6   0   0   0   8   0   0   0   0   0   0   0   0   0   0   3   0   4   0   0   0   0  13 98 96 93 90 89 66 62 61 60 59 53 47 40 
   9   0   0   0   0   0   0   0   0   0   0   0   0   0   0   0   7   0   4   0   0   0   0   0   0   0   0   0   0   0   0  12 100 98 94 91 85 80 71 68 63 60 56 38 
   7   0   0   0   0   0   0   0   0   0   0   0   0   0   0   0   0   0   0   0   0   0   0   0   0   0   0   0   0   0   0  20 101 99 96 95 94 93 92 91 90 87 80 73 71 69 68 67 66 62 61 54 
   7  10   0   0   0   0   0   0   0   3   0   0   4   0   0   0   0   4   0   0   0   0   0   0   0   0   0   0   0   0   0  17 98 97 95 93 92 91 90 89 84 83 79 67 66 60 59 55 53 
   6   0   0   0   0   0   0   0   0   0   0   4   0   0   5   0   2   0   6   0   1   0   0   0   0   9   0   0   0   0   0  15 99 94 93 90 89 87 76 72 71 69 62 59 56 52 47 
   4   0   0   0   0   0   0   0   0   0   0   0   0   0   0   0   0   2   0   0   0   0   0   0   0   0   0   4   0   0   0  15 96 95 94 93 90 89 86 83 77 67 63 62 60 56 47 
  10   0   0   0   0   0   0   0   0   0   0   0   0   0   0   0   0   6   0   8   0   0   0   8   0   0   0   0   0   0   0  14 99 98 94 93 90 89 87 74 71 69 65 61 54 47 
   6   0   0   0   0   0   0   0   0   0   9   0   0   0   0   0   0   0   0   0   0   0   0   0   5   0  10   0   0   7   0  14 100 97 94 93 92 90 89 85 83 81 66 62 59 47 
   4   0   0   0   0   5   0   0   0   2   0   0   0   0   0   0   0   0   0   0   6   0   0   0   0   0   0   0   0   0   8  13 100 98 97 94 93 89 83 76 70 68 65 52 47 
   6   4   0   5   0   0   4   0   0   0   0   0   0   0   0   0   0   9   0   0   9   0   0   0   0   0   0   0   3   0   0  13 96 92 90 89 87 85 84 80 70 67 66 62 59 
   9   0   0   0   0   0   0   0   0   0  10   0   0   0   0   6   8   0   0   0   0   0   0   0   0   0   0   0   0   0   0  13 101 92 90 89 88 84 81 80 77 76 62 61 60 
   2   0   0   0   0   8   0   0   0   0   0   0   0   0   0   4   0   0   3   0   0   0   0   0   0   0   0   0   0   0   5  14 97 96 93 91 90 88 87 85 82 80 76 65 62 56 
   7   0   0   5  10   0   0   0   0   0   0   0   0   0   0   0   0   0   0   0   0   0   0   0   0   0   5   0   0   0   6  12 99 98 89 88 87 83 82 78 67 65 56 52 
   5   8   5   0   0   0   0   0   0   6   0   0   0   0   0   0   0   0   0   0   0   0   0   0   0   0   0   0   5   7   0  16 94 92 91 88 87 86 85 83 82 81 80 79 78 76 68 65 
   4   0   0   0   0   7   0   8   0   0   0   9   0   0   0   0   0  10   0   0   0   0   0   0   0   0   0   0   0   0   0  15 96 95 92 90 89 88 84 83 82 77 76 75 74 69 62 
   5   0   5   0   0   0   0   0  10   0   7   0   0   0   0   0   7   0   0   0   0   0   0   0   0   0   7   0   0   0   0  10 98 95 93 83 80 77 70 66 62 60 
   3   0   0   0   0   0   0   0   5   0   0   0   0   0   0   0   0   0   0   0   0   0   0   6   0   0   0   0   0   0   0  11 87 86 85 82 80 79 77 76 67 65 56 
   3   0   0   0   0   0   0   0   0   0   0   0   0   0   0   0   0   0   0   0   0   0   0   3   0   0   7   8   0   0   0  13 96 93 86 85 83 82 81 79 78 77 75 74 66 
   4   0   0   0   0   0   0   0   7   0   6   0   0  10   0   0   0   0   0   0   0   0   5   0  10   0   0   9   0   0   0  11 90 86 85 84 83 82 78 77 76 74 65 
   5   0   0   0   0   0   0   8   0   0   0   6   0   0   0   0   0   0   0   0   0   0   0   0   0   0   0   0   0   0   0  10 95 94 90 89 88 81 77 76 73 67 
   9   0   0   0   5   0   0   0   0   0   0   0   0   0   0   0   0   0   0   0   0   0   0   0   0   0   0   0   0   0   0   9 93 89 86 84 83 78 77 75 74 
  10   0   0   0   0   0   0   0   0   0   0   0   0   0   0   0   0   4   0   8   0   0   0   0   0   0   0   0   0   7   4   8 98 95 90 82 81 78 74 66 
   5   0   5   0   0   0   0   7   0   0   0   0   0   0   0   0   0   0   0   0   0   0   0   0   0   0   8   0   0   0   0   8 92 88 85 84 81 77 76 74 
   2   0   0   0   0   0   0   0   0   0   0   0   0   0   0   0   0   9   7   7   0   0   0   0   0   0   0   4   0   6   0   7 91 88 84 82 80 79 78 
   8   0   0   0   0   0   0   0   0   0   0   0   0   0   0   0   5   0   0   0   0   0   0   0   0   0   0   0   0   0   0   7 99 92 80 79 76 75 74 
   7  10   0   0   0   0   0   0   5   0   0   0   0   0   0   0   0   0   0   0   0   6   0   0   0   0   0   0   0   0   0   6 96 91 90 80 74 65 
   2   6   9   0   0   0   0   0   0   0   0   0   0   0   0   0   0   0   0   5   0   0   0   0   0   0   3   0   0   0   0   6 94 85 84 79 74 65 
  10   0   0   0   0   0   0   0   6   0   0   0   6   0   0   0   0   0   0   0   7   0   6   0   0   8   0   0   9   0   0   6 82 80 78 77 75 74 
   9   7   0   0   0   0   0   5   0   6   0   0   0   0   0   0   0   0   0   5   0   0   0   0   0   0   0   0   0   0   0   5 80 79 77 75 74 
   2   0   0   4   0   4   0   0   0   0   0   0   0   0   0   0   0   0   0   0   0   0   0   0   0   0   7   0   0   0   0   5 86 81 77 76 74 
   5   0   0   8   0   0   0   0   0   0   6   0   0   0   0   0   0   0   0   0   0   0   0   0  10   5   0   0   0   6   0   5 86 85 83 77 76 
   8   0   0   0   0   0   0   0   0   0   0   0   0   0   0   7   0   0   0   0   0   0   0   0   0   7   0   0   0   0   0   5 87 85 80 75 74 
   3   2   0   0   0   6   0   6   0   0   3   7   0   0   5   0   5   0   9   0   0   0   0   0   0   0   0   0   0   0   0   4 84 81 75 74 
   8   0   0   0   0   0   0   0   0   0   0   0   0   4   0   0   0   0   0   0   0   0   0   9   8   7  10   0   0   0   0   4 94 91 78 76 
   1   0   0   0   0   0   4   6   0   0   0   0   0   0   0   0   0   0   0   0   0   0   0   0   0   0   0   0   0   0   0   4 91 87 81 78 
   9   0   0   0   0   0   0   0   0   0   0   4   0   0   8   0   0   0   0   0   0   0   0   0   0   0   0   0   0   0   8   3 77 74 65 
   5   0   4   0   0   0   5   5   0   0   0   0   7   0   0   0   0   6   0   0   7   0   0   0   0   0   0   0   6   5   5   3 82 74 65 
   4   0   0   0   0   0   0   0   0   0   0   0   0   0   0   0   0   0   0   0   0   0   0   0   0   4   0   0   0   0   0   3 85 83 75 
   4   0   0   0   0   0   0   0   0   0   0   0   0   0   0   0   0   0   6   0   0   0   0   0   0   0   0   0   0   0   0   2 79 78 
   9   4   8   0   7   0   0   3   6   0   0   0   0   0   0   0   0   0   0  10   0   7   0   0   0   0   0   0   0   0   0   2 87 76 
  10   7   0   0   0   0   0   0   0   0   0   4   0   0   6   0   0   0   0   0   0   0   0   0   0   0   0   0   0   0   6   2 77 76 
   1   0   0   0   0   0   0   0   0   0   0   4   0   0   0   0   0   0   0   0   0   0   5   0   0   0   0   0   0   0   0   1 75 
   5   0   0   0   0   0   0   0   0   0   0   0   0   0   0   4   0   0   0   0   0   0   0   0   0   0   0   0   0   0   0   1 76 
   6   0   0   0   0   0   0   0   0   0   0   0   0   0   7   0   0   3   0   0   7   0   0   0   0   0   0   8   0   0   0   1 75 
   7   0   0   0   0   8   6   0   0   0   0   6   0   0   0   0   5   0   0   0   0   0   3   0   0   0   0   0   7   0   0   1 74 
   5   0   0   0   0   0   0   0   5   0   0   0   0   0   0   0   0   0   0   0   0   5   0   0   0   0   0   0   0   0   0   1 81 
   5   0   0   0   5   0   7   0   0   0   9   8   0   0   0   0   0  10  10   0   0   0   0   0   0   0   7   0   0   0   0   1 86 
   2   3   0   5   0   0   0   0   5   0   0   0   0   0   0   0   0   0   0   0   0   2   0   0   6   0   0   0   0   0   0   1 77 
   7   0   0   6   0   0   9   0   0   0   0   8   0   0   0   0   0   0   0   0   0   0   0   0   0   0   8   0  10   0   0   1 83 
   9   0   0   0   0   0   0   0   0   0   0   0  10   0   0   0   6  10   0   0   0   0  10   0   0   0   0   0   0   0   0   1 74 
   1   0   0   0   0   0   0   0   0   8   0   0   0   4   0   0   0   0   0   0   0   0   9   0   0   0   0   0   0   0   0   1 102
   7   0   8   0   0   0   0   8  10   7   0   7   5   6   0   0   0   0   0   0   0   8   0   0   0   0   7   0   0   0   8   1 102
   5   0   0   0   0   0   0   4   0   0   0   0   5   0   0   0   0   0   0   0   0   0   0   0   0   0   0   0   0   0   0   1 102
   5   0   5   7   0   6   0   0   7   0   0   0   0   8   0   0   5   6   0   0   0   0   0   6   0   0   0   0   0   0   0   1 102
   5   4   0   0   0   9   0   0   4   0   7   0   0   0   0   0   0   0   0   0   0   0   0   0   0   0   0   0   0   0   0   1 102
   8   0   0   0   0   0   0   0   0   0   0   0   0   0   0   0   0   0   0   0   0   0   0   0   0   0   0   0   0   0   0   1 102
   9   0   0   0   0   3   0   0   0   0   0   0   0   0   0   0   0   0   0   0   0   0   0   0   0   0   0   0   0   0   0   1 102
   6   0   0   0   0   0   0   6   0   0   0   0   0   0   0   6   0   0   0   0   0   8   0   0   0   0   3   6   0   7   0   1 102
   7   0   0   9   0   0   0   0   0   0   0   0   0   0   0   0   0   0   8   0   0   0   0   0   0   0   0   0   0   0   0   1 102
   3   0   0   0   0   0   0   0   0   0   4   0   0   0   0   0  10   0   5   8   0   0   0   0   4   0   0   0   0   9   0   1 102
   5   0   0   0   0   0   0   0   0   0   0   0   6   0   0   0   0   0   0   0   0   0   0   0   0   0   0   0   0   0   0   1 102
   1   0   0   0   4   0   0   0   0   0   0   0   0   0   0   0   0   0   0   0   0   0   0   0   0   0   0   0   0   6   0   1 102
   1   6   0  10   0   0   0   0   0   0   0   6   0   0   0   0   0   0   0   3   0   0   0   0   0   0   0   0   0   0   0   1 102
   7   0   0   0   0   4   0   0   0   0   2   0   0   0   0   0   0   0  10   0   6   0   0   0   0   0   5   6   4   0   0   1 102
   9   0   0   0   0   9   0   0   0   0   0   0   0   0   0   6   0   0   0   0   0   0   0   0   0   0   0   0   0   0   0   1 102
   8   0   0   0   0   0   0   6   0   6   7   7   0   0   0   0   0   3   0   0   0   0   0   0   7   0   0   0   0   0   9   1 102
   8   0   0   0   0   0   7   0   0   0   0   0   0   0   0   0   0   0   0   0   0   0   0   0   0   0   9   0   9   0   0   1 102
   7   0   7   0   9   0   0   0   0   0   0   0   0   0   0   6   0   0   0   0   3   0   0   0   0   0   0   0   3   0   0   1 102
  10   0   5   0   0   9   0  10   0   0   0   0   0   0   0   6   0   0   0   0   0   0   0   0   0   0   3   0   0   0   0   1 102
   9   0   0   0   5   5   0   0   0   0   6   0   0   0   0   0   7   0   0   0   0  10   0   0   0   0   0   0   0   0   0   1 102
   7   0   0   0   0   0   0   0   0   0   0   0   0   0   0   0   0   0   0   0   0   0   0  10   0   0   0   0   0   0   0   1 102
   2   0   0   0   0   0   0   0   0   9   0   7   0   7   0   0   0   0   7   0   0   0   0   0   0   2   0   0   0   0   0   1 102
   9   0   0   0   0   0   4   0   0   0   0   0   0   0   0   7   0   0   0   0   0   7   0   0   0   0   0   0   0   0   0   1 102
   1   7   0   0   0   0  10   0   0   0   0   0   0   0   0   0   0   0   9   0   0   0   0   0   0   0   0   1   0   0   0   1 102
  10   0   0   0   0   0   0   0   0   0   0   0   0   0   0   0   8   0   0   0   0   0   0   7   0   0   0   0   0   0   0   1 102
   7  10   0   7   5   6   9   0   0   0   0   0   8   0   0  10   0   0   0   0   8   0   0   0   0   0   0   0   0   0   0   1 102
   4   0   9   0   0   0   0   0   0   0   0   0   0   0   0   0   0   0   0   0   0   0   0   4   0   6   0   0   0   0   0   1 102
   1   0   0   0   0   0   0   0   0   0   0   0   9   0   0   0   0   0   0   0   0   0   0   0   0   0   0   0   0   5   0   1 102
   0   0   0   0   0   0   0   0   0   0   0   0   0   0   0   0   0   0   0   0   0   0   0   0   0   0   0   0   0   0   0   0 
